instances/knapsack/discrete_knapsack_uncertainty/knapsack_60_10.lp
\ Model knapsack_60_10
\ LP format - for model browsing. Use MPS format to capture full model detail.
\ Signature: 0x44a844bc7146bef8
Minimize
  - 81 x[0] - 18 x[1] - 91 x[2] - 19 x[3] - 49 x[4] - 88 x[5] - 29 x[6]
   - 7 x[7] - 22 x[8] - 70 x[9] - 94 x[10] - 58 x[11] - 26 x[12] - 29 x[13]
   - 10 x[14] - 3 x[15] - 93 x[16] - 57 x[17] - 26 x[18] - 57 x[19]
   - 89 x[20] - 34 x[21] - 95 x[22] - 87 x[23] - 92 x[24] - 46 x[25]
   - 95 x[26] - 39 x[27] - 65 x[28] - 44 x[29] - 64 x[30] - 71 x[31]
   - 39 x[32] - 34 x[33] - 15 x[34] - 4 x[35] - 88 x[36] - 94 x[37]
   - 46 x[38] - 27 x[39] - 71 x[40] - 97 x[41] - 17 x[42] - 90 x[43]
   - 22 x[44] - 18 x[45] - 96 x[46] - 96 x[47] - 12 x[48] - 73 x[49]
   - 58 x[50] - 90 x[51] - 14 x[52] - 8 x[53] - 63 x[54] - 93 x[55]
   - 82 x[56] - 59 x[57] - 43 x[58] - 74 x[59]
Subject To
 primal_upper: 87 x[0] + 23 x[1] + 53 x[2] + 58 x[3] + 63 x[4] + 49 x[5]
   + 96 x[6] + 83 x[7] + 16 x[8] + x[9] + 67 x[10] + 46 x[11] + 39 x[12]
   + 75 x[13] + 60 x[14] + 32 x[15] + 88 x[16] + 99 x[17] + 24 x[18]
   + 65 x[19] + 80 x[20] + 39 x[21] + 79 x[22] + 98 x[23] + 20 x[24]
   + 71 x[25] + 97 x[26] + 55 x[27] + 65 x[28] + 50 x[29] + 9 x[30]
   + 99 x[31] + 43 x[32] + 8 x[33] + 95 x[34] + 52 x[35] + 63 x[36]
   + 92 x[37] + 55 x[38] + 90 x[39] + 10 x[40] + 97 x[41] + 97 x[42]
   + 89 x[43] + 6 x[44] + 38 x[45] + 17 x[46] + 41 x[47] + 86 x[48]
   + 15 x[49] + 54 x[50] + 75 x[51] + 76 x[52] + 47 x[53] + 48 x[54]
   + 79 x[55] + 32 x[56] + 2 x[57] + 19 x[58] + 77 x[59] + 8.7 r[0]
   + 2.3 r[1] + 5.3 r[2] + 5.8 r[3] + 6.3 r[4] + 4.9 r[5] + 9.6 r[6]
   + 8.3 r[7] + 1.6 r[8] + 0.1 r[9] + 6.7 r[10] + 4.6 r[11] + 3.9 r[12]
   + 7.5 r[13] + 6 r[14] + 3.2 r[15] + 8.8 r[16] + 9.9 r[17] + 2.4 r[18]
   + 6.5 r[19] + 8 r[20] + 3.9 r[21] + 7.9 r[22] + 9.8 r[23] + 2 r[24]
   + 7.1 r[25] + 9.7 r[26] + 5.5 r[27] + 6.5 r[28] + 5 r[29] + 0.9 r[30]
   + 9.9 r[31] + 4.3 r[32] + 0.8 r[33] + 9.5 r[34] + 5.2 r[35] + 6.3 r[36]
   + 9.2 r[37] + 5.5 r[38] + 9 r[39] + r[40] + 9.7 r[41] + 9.7 r[42]
   + 8.9 r[43] + 0.6 r[44] + 3.8 r[45] + 1.7 r[46] + 4.1 r[47] + 8.6 r[48]
   + 1.5 r[49] + 5.4 r[50] + 7.5 r[51] + 7.6 r[52] + 4.7 r[53] + 4.8 r[54]
   + 7.9 r[55] + 3.2 r[56] + 0.2 r[57] + 1.9 r[58] + 7.7 r[59] <= 322
 primal_lower: 1.536080701901061 x[0] + 3.75419932014649 x[1]
   + 3.563621737939079 x[2] + 3.970782397326254 x[3]
   + 3.308561668668971 x[4] + 3.729759478443472 x[5] + 2.0738408198398 x[6]
   + 1.683642231280162 x[7] + 4.629702565885423 x[8]
   + 2.237597980391733 x[9] + 3.792371692890068 x[10]
   + 1.561381784981117 x[11] + 2.103295523259842 x[12]
   + 1.849640169735302 x[13] + 4.279776004665433 x[14]
   + 4.263244132860321 x[15] + 1.924614088846652 x[16]
   + 1.228148790965868 x[17] + 0.3872341601555225 x[18]
   + 1.438911771004584 x[19] + 3.181830793358221 x[20]
   + 0.8194540902087812 x[21] + 2.069122942109053 x[22]
   + 4.379297969245296 x[23] + 0.1142089041701786 x[24]
   + 4.252073518473549 x[25] + 3.296778029981482 x[26]
   + 3.940154793358129 x[27] + 3.674049096600015 x[28]
   + 1.623855438109963 x[29] + 2.319236364504717 x[30]
   + 1.172476613079268 x[31] + 4.271918722048361 x[32]
   + 2.776726986286399 x[33] + 3.305945110257459 x[34]
   + 0.3629275937031502 x[35] + 3.907993643075953 x[36]
   + 2.399231301619845 x[37] + 4.042070785208127 x[38]
   + 3.702219036532593 x[39] + 1.454734561582553 x[40]
   + 4.497416045354345 x[41] + 3.803166545624429 x[42]
   + 3.791527002916664 x[43] + 4.417230516656717 x[44]
   + 3.137296710987289 x[45] + 2.583554070416092 x[46]
   + 4.151442082706042 x[47] + 1.671943075810653 x[48]
   + 1.502798557930978 x[49] + 2.681084729995605 x[50]
   + 1.811311516880376 x[51] + 2.138171357927803 x[52]
   + 2.84796942345743 x[53] + 4.278586856545329 x[54]
   + 1.900219975208964 x[55] + 0.0846055591711132 x[56]
   + 2.240444064806467 x[57] + 0.0500078287814155 x[58]
   + 1.107779128904733 x[59] + 51 u[0] + 91 u[1] + 37 u[2] + 62 u[3]
   + 23 u[4] + 57 u[5] + 60 u[6] + 23 u[7] + 12 u[8] + 89 u[9] + 35 u[10]
   + 6 u[11] + 83 u[12] + 99 u[13] + 24 u[14] + 72 u[15] + 32 u[16]
   + 47 u[17] + 16 u[18] + 9 u[19] + 16 u[20] + 95 u[21] + 11 u[22]
   + 66 u[23] + 36 u[24] + 3 u[25] + u[26] + 7 u[27] + 13 u[28] + 38 u[29]
   + 25 u[30] + 7 u[31] + 87 u[32] + 64 u[33] + 99 u[34] + 16 u[35]
   + 23 u[36] + 96 u[37] + 43 u[38] + 30 u[39] + 86 u[40] + 41 u[41]
   + 97 u[42] + 29 u[43] + 98 u[44] + 34 u[45] + 97 u[46] + 25 u[47]
   + 34 u[48] + 87 u[49] + 78 u[50] + 51 u[51] + 32 u[52] + 87 u[53]
   + 56 u[54] + 99 u[55] + 76 u[56] + 34 u[57] + 55 u[58] + 21 u[59]
   <= 46248
 mccormick1[0]: - u[0] + r[0] <= 0
 mccormick1[1]: - u[1] + r[1] <= 0
 mccormick1[2]: - u[2] + r[2] <= 0
 mccormick1[3]: - u[3] + r[3] <= 0
 mccormick1[4]: - u[4] + r[4] <= 0
 mccormick1[5]: - u[5] + r[5] <= 0
 mccormick1[6]: - u[6] + r[6] <= 0
 mccormick1[7]: - u[7] + r[7] <= 0
 mccormick1[8]: - u[8] + r[8] <= 0
 mccormick1[9]: - u[9] + r[9] <= 0
 mccormick1[10]: - u[10] + r[10] <= 0
 mccormick1[11]: - u[11] + r[11] <= 0
 mccormick1[12]: - u[12] + r[12] <= 0
 mccormick1[13]: - u[13] + r[13] <= 0
 mccormick1[14]: - u[14] + r[14] <= 0
 mccormick1[15]: - u[15] + r[15] <= 0
 mccormick1[16]: - u[16] + r[16] <= 0
 mccormick1[17]: - u[17] + r[17] <= 0
 mccormick1[18]: - u[18] + r[18] <= 0
 mccormick1[19]: - u[19] + r[19] <= 0
 mccormick1[20]: - u[20] + r[20] <= 0
 mccormick1[21]: - u[21] + r[21] <= 0
 mccormick1[22]: - u[22] + r[22] <= 0
 mccormick1[23]: - u[23] + r[23] <= 0
 mccormick1[24]: - u[24] + r[24] <= 0
 mccormick1[25]: - u[25] + r[25] <= 0
 mccormick1[26]: - u[26] + r[26] <= 0
 mccormick1[27]: - u[27] + r[27] <= 0
 mccormick1[28]: - u[28] + r[28] <= 0
 mccormick1[29]: - u[29] + r[29] <= 0
 mccormick1[30]: - u[30] + r[30] <= 0
 mccormick1[31]: - u[31] + r[31] <= 0
 mccormick1[32]: - u[32] + r[32] <= 0
 mccormick1[33]: - u[33] + r[33] <= 0
 mccormick1[34]: - u[34] + r[34] <= 0
 mccormick1[35]: - u[35] + r[35] <= 0
 mccormick1[36]: - u[36] + r[36] <= 0
 mccormick1[37]: - u[37] + r[37] <= 0
 mccormick1[38]: - u[38] + r[38] <= 0
 mccormick1[39]: - u[39] + r[39] <= 0
 mccormick1[40]: - u[40] + r[40] <= 0
 mccormick1[41]: - u[41] + r[41] <= 0
 mccormick1[42]: - u[42] + r[42] <= 0
 mccormick1[43]: - u[43] + r[43] <= 0
 mccormick1[44]: - u[44] + r[44] <= 0
 mccormick1[45]: - u[45] + r[45] <= 0
 mccormick1[46]: - u[46] + r[46] <= 0
 mccormick1[47]: - u[47] + r[47] <= 0
 mccormick1[48]: - u[48] + r[48] <= 0
 mccormick1[49]: - u[49] + r[49] <= 0
 mccormick1[50]: - u[50] + r[50] <= 0
 mccormick1[51]: - u[51] + r[51] <= 0
 mccormick1[52]: - u[52] + r[52] <= 0
 mccormick1[53]: - u[53] + r[53] <= 0
 mccormick1[54]: - u[54] + r[54] <= 0
 mccormick1[55]: - u[55] + r[55] <= 0
 mccormick1[56]: - u[56] + r[56] <= 0
 mccormick1[57]: - u[57] + r[57] <= 0
 mccormick1[58]: - u[58] + r[58] <= 0
 mccormick1[59]: - u[59] + r[59] <= 0
 mccormick2[0]: - x[0] + r[0] <= 0
 mccormick2[1]: - x[1] + r[1] <= 0
 mccormick2[2]: - x[2] + r[2] <= 0
 mccormick2[3]: - x[3] + r[3] <= 0
 mccormick2[4]: - x[4] + r[4] <= 0
 mccormick2[5]: - x[5] + r[5] <= 0
 mccormick2[6]: - x[6] + r[6] <= 0
 mccormick2[7]: - x[7] + r[7] <= 0
 mccormick2[8]: - x[8] + r[8] <= 0
 mccormick2[9]: - x[9] + r[9] <= 0
 mccormick2[10]: - x[10] + r[10] <= 0
 mccormick2[11]: - x[11] + r[11] <= 0
 mccormick2[12]: - x[12] + r[12] <= 0
 mccormick2[13]: - x[13] + r[13] <= 0
 mccormick2[14]: - x[14] + r[14] <= 0
 mccormick2[15]: - x[15] + r[15] <= 0
 mccormick2[16]: - x[16] + r[16] <= 0
 mccormick2[17]: - x[17] + r[17] <= 0
 mccormick2[18]: - x[18] + r[18] <= 0
 mccormick2[19]: - x[19] + r[19] <= 0
 mccormick2[20]: - x[20] + r[20] <= 0
 mccormick2[21]: - x[21] + r[21] <= 0
 mccormick2[22]: - x[22] + r[22] <= 0
 mccormick2[23]: - x[23] + r[23] <= 0
 mccormick2[24]: - x[24] + r[24] <= 0
 mccormick2[25]: - x[25] + r[25] <= 0
 mccormick2[26]: - x[26] + r[26] <= 0
 mccormick2[27]: - x[27] + r[27] <= 0
 mccormick2[28]: - x[28] + r[28] <= 0
 mccormick2[29]: - x[29] + r[29] <= 0
 mccormick2[30]: - x[30] + r[30] <= 0
 mccormick2[31]: - x[31] + r[31] <= 0
 mccormick2[32]: - x[32] + r[32] <= 0
 mccormick2[33]: - x[33] + r[33] <= 0
 mccormick2[34]: - x[34] + r[34] <= 0
 mccormick2[35]: - x[35] + r[35] <= 0
 mccormick2[36]: - x[36] + r[36] <= 0
 mccormick2[37]: - x[37] + r[37] <= 0
 mccormick2[38]: - x[38] + r[38] <= 0
 mccormick2[39]: - x[39] + r[39] <= 0
 mccormick2[40]: - x[40] + r[40] <= 0
 mccormick2[41]: - x[41] + r[41] <= 0
 mccormick2[42]: - x[42] + r[42] <= 0
 mccormick2[43]: - x[43] + r[43] <= 0
 mccormick2[44]: - x[44] + r[44] <= 0
 mccormick2[45]: - x[45] + r[45] <= 0
 mccormick2[46]: - x[46] + r[46] <= 0
 mccormick2[47]: - x[47] + r[47] <= 0
 mccormick2[48]: - x[48] + r[48] <= 0
 mccormick2[49]: - x[49] + r[49] <= 0
 mccormick2[50]: - x[50] + r[50] <= 0
 mccormick2[51]: - x[51] + r[51] <= 0
 mccormick2[52]: - x[52] + r[52] <= 0
 mccormick2[53]: - x[53] + r[53] <= 0
 mccormick2[54]: - x[54] + r[54] <= 0
 mccormick2[55]: - x[55] + r[55] <= 0
 mccormick2[56]: - x[56] + r[56] <= 0
 mccormick2[57]: - x[57] + r[57] <= 0
 mccormick2[58]: - x[58] + r[58] <= 0
 mccormick2[59]: - x[59] + r[59] <= 0
 mccormick3[0]: x[0] + u[0] - r[0] <= 1
 mccormick3[1]: x[1] + u[1] - r[1] <= 1
 mccormick3[2]: x[2] + u[2] - r[2] <= 1
 mccormick3[3]: x[3] + u[3] - r[3] <= 1
 mccormick3[4]: x[4] + u[4] - r[4] <= 1
 mccormick3[5]: x[5] + u[5] - r[5] <= 1
 mccormick3[6]: x[6] + u[6] - r[6] <= 1
 mccormick3[7]: x[7] + u[7] - r[7] <= 1
 mccormick3[8]: x[8] + u[8] - r[8] <= 1
 mccormick3[9]: x[9] + u[9] - r[9] <= 1
 mccormick3[10]: x[10] + u[10] - r[10] <= 1
 mccormick3[11]: x[11] + u[11] - r[11] <= 1
 mccormick3[12]: x[12] + u[12] - r[12] <= 1
 mccormick3[13]: x[13] + u[13] - r[13] <= 1
 mccormick3[14]: x[14] + u[14] - r[14] <= 1
 mccormick3[15]: x[15] + u[15] - r[15] <= 1
 mccormick3[16]: x[16] + u[16] - r[16] <= 1
 mccormick3[17]: x[17] + u[17] - r[17] <= 1
 mccormick3[18]: x[18] + u[18] - r[18] <= 1
 mccormick3[19]: x[19] + u[19] - r[19] <= 1
 mccormick3[20]: x[20] + u[20] - r[20] <= 1
 mccormick3[21]: x[21] + u[21] - r[21] <= 1
 mccormick3[22]: x[22] + u[22] - r[22] <= 1
 mccormick3[23]: x[23] + u[23] - r[23] <= 1
 mccormick3[24]: x[24] + u[24] - r[24] <= 1
 mccormick3[25]: x[25] + u[25] - r[25] <= 1
 mccormick3[26]: x[26] + u[26] - r[26] <= 1
 mccormick3[27]: x[27] + u[27] - r[27] <= 1
 mccormick3[28]: x[28] + u[28] - r[28] <= 1
 mccormick3[29]: x[29] + u[29] - r[29] <= 1
 mccormick3[30]: x[30] + u[30] - r[30] <= 1
 mccormick3[31]: x[31] + u[31] - r[31] <= 1
 mccormick3[32]: x[32] + u[32] - r[32] <= 1
 mccormick3[33]: x[33] + u[33] - r[33] <= 1
 mccormick3[34]: x[34] + u[34] - r[34] <= 1
 mccormick3[35]: x[35] + u[35] - r[35] <= 1
 mccormick3[36]: x[36] + u[36] - r[36] <= 1
 mccormick3[37]: x[37] + u[37] - r[37] <= 1
 mccormick3[38]: x[38] + u[38] - r[38] <= 1
 mccormick3[39]: x[39] + u[39] - r[39] <= 1
 mccormick3[40]: x[40] + u[40] - r[40] <= 1
 mccormick3[41]: x[41] + u[41] - r[41] <= 1
 mccormick3[42]: x[42] + u[42] - r[42] <= 1
 mccormick3[43]: x[43] + u[43] - r[43] <= 1
 mccormick3[44]: x[44] + u[44] - r[44] <= 1
 mccormick3[45]: x[45] + u[45] - r[45] <= 1
 mccormick3[46]: x[46] + u[46] - r[46] <= 1
 mccormick3[47]: x[47] + u[47] - r[47] <= 1
 mccormick3[48]: x[48] + u[48] - r[48] <= 1
 mccormick3[49]: x[49] + u[49] - r[49] <= 1
 mccormick3[50]: x[50] + u[50] - r[50] <= 1
 mccormick3[51]: x[51] + u[51] - r[51] <= 1
 mccormick3[52]: x[52] + u[52] - r[52] <= 1
 mccormick3[53]: x[53] + u[53] - r[53] <= 1
 mccormick3[54]: x[54] + u[54] - r[54] <= 1
 mccormick3[55]: x[55] + u[55] - r[55] <= 1
 mccormick3[56]: x[56] + u[56] - r[56] <= 1
 mccormick3[57]: x[57] + u[57] - r[57] <= 1
 mccormick3[58]: x[58] + u[58] - r[58] <= 1
 mccormick3[59]: x[59] + u[59] - r[59] <= 1
Bounds
Binaries
 x[0] x[1] x[2] x[3] x[4] x[5] x[6] x[7] x[8] x[9] x[10] x[11] x[12] x[13]
 x[14] x[15] x[16] x[17] x[18] x[19] x[20] x[21] x[22] x[23] x[24] x[25]
 x[26] x[27] x[28] x[29] x[30] x[31] x[32] x[33] x[34] x[35] x[36] x[37]
 x[38] x[39] x[40] x[41] x[42] x[43] x[44] x[45] x[46] x[47] x[48] x[49]
 x[50] x[51] x[52] x[53] x[54] x[55] x[56] x[57] x[58] x[59] u[0] u[1] u[2]
 u[3] u[4] u[5] u[6] u[7] u[8] u[9] u[10] u[11] u[12] u[13] u[14] u[15]
 u[16] u[17] u[18] u[19] u[20] u[21] u[22] u[23] u[24] u[25] u[26] u[27]
 u[28] u[29] u[30] u[31] u[32] u[33] u[34] u[35] u[36] u[37] u[38] u[39]
 u[40] u[41] u[42] u[43] u[44] u[45] u[46] u[47] u[48] u[49] u[50] u[51]
 u[52] u[53] u[54] u[55] u[56] u[57] u[58] u[59] r[0] r[1] r[2] r[3] r[4]
 r[5] r[6] r[7] r[8] r[9] r[10] r[11] r[12] r[13] r[14] r[15] r[16] r[17]
 r[18] r[19] r[20] r[21] r[22] r[23] r[24] r[25] r[26] r[27] r[28] r[29]
 r[30] r[31] r[32] r[33] r[34] r[35] r[36] r[37] r[38] r[39] r[40] r[41]
 r[42] r[43] r[44] r[45] r[46] r[47] r[48] r[49] r[50] r[51] r[52] r[53]
 r[54] r[55] r[56] r[57] r[58] r[59]
End
