instances/knapsack/discrete_knapsack_uncertainty/knapsack_60_10.kp
94104
60
322

87 8.7 81
23 2.3 18
53 5.3 91
58 5.8 19
63 6.3 49
49 4.9 88
96 9.6 29
83 8.3 7
16 1.6 22
1 0.1 70
67 6.7 94
46 4.6 58
39 3.9 26
75 7.5 29
60 6.0 10
32 3.2 3
88 8.8 93
99 9.9 57
24 2.4 26
65 6.5 57
80 8.0 89
39 3.9 34
79 7.9 95
98 9.8 87
20 2.0 92
71 7.1 46
97 9.7 95
55 5.5 39
65 6.5 65
50 5.0 44
9 0.9 64
99 9.9 71
43 4.3 39
8 0.8 34
95 9.5 15
52 5.2 4
63 6.3 88
92 9.2 94
55 5.5 46
90 9.0 27
10 1.0 71
97 9.7 97
97 9.7 17
89 8.9 90
6 0.6 22
38 3.8 18
17 1.7 96
41 4.1 96
86 8.6 12
15 1.5 73
54 5.4 58
75 7.5 90
76 7.6 14
47 4.7 8
48 4.8 63
79 7.9 93
32 3.2 82
2 0.2 59
19 1.9 43
77 7.7 74

46248
278

[1.536080701901061 3.75419932014649 3.5636217379390787 3.970782397326254 3.3085616686689714 3.729759478443472 2.0738408198397997 1.6836422312801618 4.629702565885423 2.2375979803917327 3.792371692890068 1.5613817849811171 2.103295523259842 1.849640169735302 4.279776004665433 4.263244132860321 1.9246140888466519 1.2281487909658677 0.38723416015552253 1.4389117710045845 3.181830793358221 0.8194540902087812 2.069122942109053 4.379297969245296 0.11420890417017862 4.252073518473549 3.2967780299814824 3.9401547933581287 3.674049096600015 1.623855438109963 2.3192363645047167 1.1724766130792676 4.271918722048361 2.776726986286399 3.305945110257459 0.3629275937031502 3.907993643075953 2.3992313016198454 4.042070785208127 3.702219036532593 1.454734561582553 4.4974160453543455 3.803166545624429 3.791527002916664 4.4172305166567165 3.137296710987289 2.583554070416092 4.151442082706042 1.6719430758106528 1.5027985579309777 2.6810847299956047 1.8113115168803755 2.1381713579278028 2.8479694234574295 4.278586856545329 1.9002199752089644 0.0846055591711132 2.2404440648064665 0.05000782878141546 1.1077791289047334]

[51 91 37 62 23 57 60 23 12 89 35 6 83 99 24 72 32 47 16 9 16 95 11 66 36 3 1 7 13 38 25 7 87 64 99 16 23 96 43 30 86 41 97 29 98 34 97 25 34 87 78 51 32 87 56 99 76 34 55 21]
